 &CONTROL
                       title = 'run01 ' ,
                 calculation = 'scf' ,
                restart_mode = 'from_scratch' ,
                  wf_collect = .true. ,
                      outdir = '/home/yavar01/VIDEOLECTURE/QE/' ,
                      wfcdir = '/home/yavar01/VIDEOLECTURE/QE/' ,
                  pseudo_dir = '/home/yavar01/VIDEOLECTURE/QE/' ,
                      prefix = 'SP' ,
 /
 &SYSTEM
                       ibrav = 2,
                   celldm(1) = 11.0,
                         nat = 2,
                        ntyp = 1,
                     ecutwfc = 30 ,
                     ecutrho = 240 ,
 /
 &ELECTRONS
            electron_maxstep = 100,
           scf_must_converge = .true. ,
                    conv_thr = 1.D-7 ,
             diagonalization = 'david' ,
 /
ATOMIC_SPECIES
   Si   28.00000  Si.pbe-rrkj.UPF 
ATOMIC_POSITIONS crystal 
   Si      0.000000000    0.000000000    0.000000000    
   Si      0.250000000    0.250000000    0.250000000    
K_POINTS automatic 
  4 4 4   1 1 1 

